set VV := 0 1 2 3 4 5 6 7 8 ;
set VS := 0 1 2 3 4 5 6 7 8 9 10 11 12 13 14 15 16 17 18 19 20 21 ;
param cv := 
0 10
1 24
2 23
3 15
4 22
5 23
6 16
7 20
8 18
;
param cs := 
0 40
1 21
2 38
3 31
4 30
5 27
6 25
7 30
8 32
9 37
10 22
11 23
12 33
13 25
14 26
15 26
16 38
17 35
18 39
19 24
20 30
21 27
;
param bv:	 0 1 2 3 4 5 6 7 8 := 
		0 0 0 0 0 25 21 0 19 25 
		1 0 0 0 13 0 0 11 0 0 
		2 0 0 0 23 0 0 0 0 0 
		3 0 0 0 0 0 22 0 0 0 
		4 0 0 0 0 0 0 0 0 0 
		5 0 0 0 0 0 0 0 18 19 
		6 0 0 0 0 0 0 0 0 0 
		7 0 0 0 0 0 0 0 0 0 
		8 0 0 0 0 0 0 0 0 0 
;
param bs:	 0 1 2 3 4 5 6 7 8 9 10 11 12 13 14 15 16 17 18 19 20 21 := 
		0 0 0 0 0 0 0 21 0 0 21 31 0 0 0 0 0 0 0 0 0 0 0 
		1 0 0 0 40 0 0 0 0 0 0 28 0 0 0 0 0 27 22 0 23 28 0 
		2 0 0 0 0 0 0 0 0 0 0 0 0 0 0 0 0 0 27 0 0 0 0 
		3 0 40 0 0 0 0 0 0 0 0 0 0 0 0 0 0 20 0 0 0 0 0 
		4 0 0 0 0 0 0 0 0 0 0 0 0 0 0 31 0 0 38 0 0 0 0 
		5 0 0 0 0 0 0 31 0 0 0 0 0 0 0 0 0 0 0 0 0 0 0 
		6 21 0 0 0 0 31 0 0 0 0 0 0 0 0 27 0 0 0 0 0 0 0 
		7 0 0 0 0 0 0 0 0 0 0 31 0 0 0 0 0 0 0 0 0 0 0 
		8 0 0 0 0 0 0 0 0 0 0 0 33 37 0 0 0 0 0 0 0 0 27 
		9 21 0 0 0 0 0 0 0 0 0 0 0 0 0 0 0 0 0 0 0 0 0 
		10 31 28 0 0 0 0 0 31 0 0 0 0 0 0 0 0 0 0 31 25 0 0 
		11 0 0 0 0 0 0 0 0 33 0 0 0 0 38 0 0 0 0 0 0 0 0 
		12 0 0 0 0 0 0 0 0 37 0 0 0 0 26 0 0 0 0 21 0 0 0 
		13 0 0 0 0 0 0 0 0 0 0 0 38 26 0 37 0 30 0 0 0 0 0 
		14 0 0 0 0 31 0 27 0 0 0 0 0 0 37 0 0 0 0 0 0 0 0 
		15 0 0 0 0 0 0 0 0 0 0 0 0 0 0 0 0 24 0 0 0 0 0 
		16 0 27 0 20 0 0 0 0 0 0 0 0 0 30 0 24 0 0 0 0 37 0 
		17 0 22 27 0 38 0 0 0 0 0 0 0 0 0 0 0 0 0 0 0 0 0 
		18 0 0 0 0 0 0 0 0 0 0 31 0 21 0 0 0 0 0 0 0 0 0 
		19 0 23 0 0 0 0 0 0 0 0 25 0 0 0 0 0 0 0 0 0 0 0 
		20 0 28 0 0 0 0 0 0 0 0 0 0 0 0 0 0 37 0 0 0 0 0 
		21 0 0 0 0 0 0 0 0 27 0 0 0 0 0 0 0 0 0 0 0 0 0 
;
